<instance format="XCSP3" type="COP">
  <variables>
    <array id="x" size="[40]"> 0 1 </array>
  </variables>
  <constraints>
    <sum>
      <list> x[] </list>
      <coeffs> 14 24 9 22 32 15 23 17 34 35 19 16 7 25 19 20 3 11 14 12 14 28 11 26 2 32 22 15 10 22 31 27 17 5 28 1 9 5 13 5 </coeffs>
      <condition> (le,150) </condition>
    </sum>
  </constraints>
  <objectives>
    <maximize type="sum">
      <list> x[] </list>
      <coeffs> 53 43 11 31 5 52 85 48 6 34 99 29 49 20 19 27 61 73 43 79 47 4 77 71 100 84 60 33 71 10 39 9 1 56 40 80 47 90 77 3 </coeffs>
    </maximize>
  </objectives>
</instance>
